c description: Random 2-CNF over 15 variables and 65 clauses
c generator: CNFgen (0.9.0)
c copyright: (C) 2012-2020 Massimo Lauria <massimo.lauria@uniroma1.it>
c url: https://massimolauria.net/cnfgen
c
p cnf 15 65
-9 -10 0
3 -8 0
-8 15 0
-2 -12 0
-4 -10 0
-1 -5 0
5 -13 0
4 7 0
-10 -15 0
6 -8 0
-5 7 0
-6 8 0
-2 -11 0
-5 6 0
9 10 0
3 -12 0
-1 -4 0
3 13 0
2 -6 0
5 13 0
5 8 0
5 -8 0
2 -3 0
-2 4 0
-1 -7 0
5 12 0
-1 -11 0
-4 7 0
12 -13 0
-1 13 0
-4 11 0
2 -7 0
4 6 0
-8 13 0
-12 -14 0
12 15 0
-2 10 0
5 -14 0
-7 -8 0
-5 -8 0
-10 14 0
-11 15 0
-3 -4 0
3 -9 0
5 14 0
-3 -12 0
6 -14 0
4 -11 0
-2 -6 0
-4 -9 0
-3 -11 0
5 10 0
-2 6 0
-2 14 0
-11 -13 0
-2 9 0
-9 15 0
2 -12 0
1 -6 0
-7 15 0
-9 14 0
-6 -8 0
9 14 0
6 7 0
1 4 0